NAME : 10_3_3_2_(26).dat
COMMENT : Henke, Speranza, Wäscher, 2015
TYPE : MCVRP
DIMENSION : 11
EDGE_WEIGHT_TYPE : DISTANCE_MATRIX
CAPACITY : 1000
VEHICLES : 3
PRODUCT TYPES : 3
COMPARTMENTS : 3
NODE_COORD_SECTION
1 50 50
2 69.34 25.02
3 57.26 40.04
4 68.22 40.63
5 12.04 85.02
6 25.89 12.67
7 70.78 31.32
8 14.98 88.31
9 11.27 25.36
10 0.88 82.94
11 21.13 82.09
DEMAND_SECTION
1 0 0 0
2 130 56 0
3 29 43 0
4 126 95 0
5 121 0 200
6 0 130 13
7 145 0 21
8 42 40 0
9 8 79 0
10 153 0 105
11 93 66 0
DEPOT_SECTION
1
EOF